\ SCIP STATISTICS
\   Problem name     : STEIN27_INF
\   Variables        : 27 (27 binary, 0 integer, 0 implicit integer, 0 continuous)
\   Constraints      : 119
\   Obj. scale       : 1
\   Obj. offset      : 0
Minimize
 Obj: +1 x0026 +1 x0001 +1 x0002 +1 x0003 +1 x0004 +1 x0005 +1 x0006 +1 x0007 +1 x0008 +1 x0009 +1 x0010
      +1 x0011 +1 x0012 +1 x0013 +1 x0014 +1 x0015 +1 x0016 +1 x0017 +1 x0018 +1 x0019 +1 x0020 +1 x0021
      +1 x0022 +1 x0023 +1 x0024 +1 x0025 +1 x0027
Subject to
 A1: +1 x0002 +1 x0003 +1 x0004 >= +1
 A2: +1 x0001 +1 x0003 +1 x0005 >= +1
 A3: +1 x0001 +1 x0002 +1 x0006 >= +1
 A4: +1 x0005 +1 x0006 +1 x0007 >= +1
 A5: +1 x0004 +1 x0006 +1 x0008 >= +1
 A6: +1 x0004 +1 x0005 +1 x0009 >= +1
 A7: +1 x0001 +1 x0008 +1 x0009 >= +1
 A8: +1 x0002 +1 x0007 +1 x0009 >= +1
 A9: +1 x0003 +1 x0007 +1 x0008 >= +1
 A10: +1 x0001 +1 x0004 +1 x0007 >= +1
 A11: +1 x0002 +1 x0005 +1 x0008 >= +1
 A12: +1 x0003 +1 x0006 +1 x0009 >= +1
 A13: +1 x0011 +1 x0012 +1 x0013 >= +1
 A14: +1 x0010 +1 x0012 +1 x0014 >= +1
 A15: +1 x0010 +1 x0011 +1 x0015 >= +1
 A16: +1 x0014 +1 x0015 +1 x0016 >= +1
 A17: +1 x0013 +1 x0015 +1 x0017 >= +1
 A18: +1 x0013 +1 x0014 +1 x0018 >= +1
 A19: +1 x0010 +1 x0017 +1 x0018 >= +1
 A20: +1 x0011 +1 x0016 +1 x0018 >= +1
 A21: +1 x0012 +1 x0016 +1 x0017 >= +1
 A22: +1 x0010 +1 x0013 +1 x0016 >= +1
 A23: +1 x0011 +1 x0014 +1 x0017 >= +1
 A24: +1 x0012 +1 x0015 +1 x0018 >= +1
 A25: +1 x0020 +1 x0021 +1 x0022 >= +1
 A26: +1 x0019 +1 x0021 +1 x0023 >= +1
 A27: +1 x0019 +1 x0020 +1 x0024 >= +1
 A28: +1 x0023 +1 x0024 +1 x0025 >= +1
 A29: +1 x0022 +1 x0024 +1 x0026 >= +1
 A30: +1 x0022 +1 x0023 +1 x0027 >= +1
 A31: +1 x0019 +1 x0026 +1 x0027 >= +1
 A32: +1 x0020 +1 x0025 +1 x0027 >= +1
 A33: +1 x0021 +1 x0025 +1 x0026 >= +1
 A34: +1 x0019 +1 x0022 +1 x0025 >= +1
 A35: +1 x0020 +1 x0023 +1 x0026 >= +1
 A36: +1 x0021 +1 x0024 +1 x0027 >= +1
 A37: +1 x0001 +1 x0010 +1 x0019 >= +1
 A38: +1 x0001 +1 x0011 +1 x0024 >= +1
 A39: +1 x0001 +1 x0012 +1 x0023 >= +1
 A40: +1 x0001 +1 x0013 +1 x0025 >= +1
 A41: +1 x0001 +1 x0014 +1 x0021 >= +1
 A42: +1 x0001 +1 x0015 +1 x0020 >= +1
 A43: +1 x0001 +1 x0016 +1 x0022 >= +1
 A44: +1 x0001 +1 x0017 +1 x0027 >= +1
 A45: +1 x0001 +1 x0018 +1 x0026 >= +1
 A46: +1 x0002 +1 x0010 +1 x0024 >= +1
 A47: +1 x0002 +1 x0011 +1 x0020 >= +1
 A48: +1 x0002 +1 x0012 +1 x0022 >= +1
 A49: +1 x0002 +1 x0013 +1 x0021 >= +1
 A50: +1 x0002 +1 x0014 +1 x0026 >= +1
 A51: +1 x0002 +1 x0015 +1 x0019 >= +1
 A52: +1 x0002 +1 x0016 +1 x0027 >= +1
 A53: +1 x0002 +1 x0017 +1 x0023 >= +1
 A54: +1 x0002 +1 x0018 +1 x0025 >= +1
 A55: +1 x0003 +1 x0010 +1 x0023 >= +1
 A56: +1 x0003 +1 x0011 +1 x0022 >= +1
 A57: +1 x0003 +1 x0012 +1 x0021 >= +1
 A58: +1 x0003 +1 x0013 +1 x0020 >= +1
 A59: +1 x0003 +1 x0014 +1 x0019 >= +1
 A60: +1 x0003 +1 x0015 +1 x0027 >= +1
 A61: +1 x0003 +1 x0016 +1 x0026 >= +1
 A62: +1 x0003 +1 x0017 +1 x0025 >= +1
 A63: +1 x0003 +1 x0018 +1 x0024 >= +1
 A64: +1 x0004 +1 x0010 +1 x0025 >= +1
 A65: +1 x0004 +1 x0011 +1 x0021 >= +1
 A66: +1 x0004 +1 x0012 +1 x0020 >= +1
 A67: +1 x0004 +1 x0013 +1 x0022 >= +1
 A68: +1 x0004 +1 x0014 +1 x0027 >= +1
 A69: +1 x0004 +1 x0015 +1 x0026 >= +1
 A70: +1 x0004 +1 x0016 +1 x0019 >= +1
 A71: +1 x0004 +1 x0017 +1 x0024 >= +1
 A72: +1 x0004 +1 x0018 +1 x0023 >= +1
 A73: +1 x0005 +1 x0010 +1 x0021 >= +1
 A74: +1 x0005 +1 x0011 +1 x0026 >= +1
 A75: +1 x0005 +1 x0012 +1 x0019 >= +1
 A76: +1 x0005 +1 x0013 +1 x0027 >= +1
 A77: +1 x0005 +1 x0014 +1 x0023 >= +1
 A78: +1 x0005 +1 x0015 +1 x0025 >= +1
 A79: +1 x0005 +1 x0016 +1 x0024 >= +1
 A80: +1 x0005 +1 x0017 +1 x0020 >= +1
 A81: +1 x0005 +1 x0018 +1 x0022 >= +1
 A82: +1 x0006 +1 x0010 +1 x0020 >= +1
 A83: +1 x0006 +1 x0011 +1 x0019 >= +1
 A84: +1 x0006 +1 x0012 +1 x0027 >= +1
 A85: +1 x0006 +1 x0013 +1 x0026 >= +1
 A86: +1 x0006 +1 x0014 +1 x0025 >= +1
 A87: +1 x0006 +1 x0015 +1 x0024 >= +1
 A88: +1 x0006 +1 x0016 +1 x0023 >= +1
 A89: +1 x0006 +1 x0017 +1 x0022 >= +1
 A90: +1 x0006 +1 x0018 +1 x0021 >= +1
 A91: +1 x0007 +1 x0010 +1 x0022 >= +1
 A92: +1 x0007 +1 x0011 +1 x0027 >= +1
 A93: +1 x0007 +1 x0012 +1 x0026 >= +1
 A94: +1 x0007 +1 x0013 +1 x0019 >= +1
 A95: +1 x0007 +1 x0014 +1 x0024 >= +1
 A96: +1 x0007 +1 x0015 +1 x0023 >= +1
 A97: +1 x0007 +1 x0016 +1 x0025 >= +1
 A98: +1 x0007 +1 x0017 +1 x0021 >= +1
 A99: +1 x0007 +1 x0018 +1 x0020 >= +1
 A100: +1 x0008 +1 x0010 +1 x0027 >= +1
 A101: +1 x0008 +1 x0011 +1 x0023 >= +1
 A102: +1 x0008 +1 x0012 +1 x0025 >= +1
 A103: +1 x0008 +1 x0013 +1 x0024 >= +1
 A104: +1 x0008 +1 x0014 +1 x0020 >= +1
 A105: +1 x0008 +1 x0015 +1 x0022 >= +1
 A106: +1 x0008 +1 x0016 +1 x0021 >= +1
 A107: +1 x0008 +1 x0017 +1 x0026 >= +1
 A108: +1 x0008 +1 x0018 +1 x0019 >= +1
 A109: +1 x0009 +1 x0010 +1 x0026 >= +1
 A110: +1 x0009 +1 x0011 +1 x0025 >= +1
 A111: +1 x0009 +1 x0012 +1 x0024 >= +1
 A112: +1 x0009 +1 x0013 +1 x0023 >= +1
 A113: +1 x0009 +1 x0014 +1 x0022 >= +1
 A114: +1 x0009 +1 x0015 +1 x0021 >= +1
 A115: +1 x0009 +1 x0016 +1 x0020 >= +1
 A116: +1 x0009 +1 x0017 +1 x0019 >= +1
 A117: +1 x0009 +1 x0018 +1 x0027 >= +1
 OB2: +1 x0001 +1 x0002 +1 x0003 +1 x0004 +1 x0005 +1 x0006 +1 x0007 +1 x0008 +1 x0009 +1 x0010 +1 x0011
  +1 x0012 +1 x0013 +1 x0014 +1 x0015 +1 x0016 +1 x0017 +1 x0018 +1 x0019 +1 x0020 +1 x0021 +1 x0022 +1 x0023
  +1 x0024 +1 x0025 +1 x0026 +1 x0027 >= +13
 objcut: +1 x0001 +1 x0002 +1 x0003 +1 x0004 +1 x0005 +1 x0006 +1 x0007 +1 x0008 +1 x0009 +1 x0010 +1 x0011
  +1 x0012 +1 x0013 +1 x0014 +1 x0015 +1 x0016 +1 x0017 +1 x0018 +1 x0019 +1 x0020 +1 x0021 +1 x0022 +1 x0023
  +1 x0024 +1 x0025 +1 x0026 +1 x0027 <= +16.0
Bounds
 0 <= x0026 <= 1
 0 <= x0001 <= 1
 0 <= x0002 <= 1
 0 <= x0003 <= 1
 0 <= x0004 <= 1
 0 <= x0005 <= 1
 0 <= x0006 <= 1
 0 <= x0007 <= 1
 0 <= x0008 <= 1
 0 <= x0009 <= 1
 0 <= x0010 <= 1
 0 <= x0011 <= 1
 0 <= x0012 <= 1
 0 <= x0013 <= 1
 0 <= x0014 <= 1
 0 <= x0015 <= 1
 0 <= x0016 <= 1
 0 <= x0017 <= 1
 0 <= x0018 <= 1
 0 <= x0019 <= 1
 0 <= x0020 <= 1
 0 <= x0021 <= 1
 0 <= x0022 <= 1
 0 <= x0023 <= 1
 0 <= x0024 <= 1
 0 <= x0025 <= 1
 0 <= x0027 <= 1
Binaries
 x0026 x0001 x0002 x0003 x0004 x0005 x0006 x0007 x0008 x0009 x0010 x0011 x0012 x0013 x0014 x0015 x0016
 x0017 x0018 x0019 x0020 x0021 x0022 x0023 x0024 x0025 x0027
End
